Min
20 x0 + 90 x1 + 80 x2 + 70 x3 + 30 x4
Subject To
     x0 + x1 + x4 >= 30.5
     x2 + x3 >= 30
     3 x0 + 2 x2 <= 120
     3 x1 + 2 x3 + x4 <= 48

Bounds
x0 >= 0
x1 >= 0
x2 >= 0
x3 >= 0
x4 >= 0
End